p tw 288 1024
1 33
2 34
3 35
4 36
5 37
6 38
7 39
8 40
9 41
10 42
11 43
12 44
13 45
14 46
15 47
16 48
17 49
18 50
19 51
20 52
21 53
22 54
23 55
24 56
25 57
26 58
27 59
28 60
29 61
30 62
31 63
32 64
33 65
33 75
33 76
33 77
33 78
34 88
34 89
34 90
34 91
34 92
35 70
35 71
35 72
35 73
35 74
36 81
36 101
36 105
36 135
36 138
37 133
37 139
37 142
37 143
37 144
38 68
38 125
38 130
38 133
38 134
39 86
39 106
39 136
39 152
39 154
40 77
40 117
40 148
40 158
40 160
41 84
41 109
41 112
41 113
41 114
42 88
42 97
42 109
42 110
42 111
43 70
43 93
43 94
43 95
43 96
44 79
44 97
44 98
44 99
44 100
45 75
45 95
45 139
45 140
45 141
46 80
46 116
46 130
46 131
46 132
47 89
47 94
47 110
47 115
47 119
48 72
48 103
48 150
48 155
48 157
49 98
49 112
49 135
49 136
49 137
50 73
50 91
50 123
50 158
50 159
51 65
51 66
51 67
51 68
51 69
52 66
52 84
52 85
52 86
52 87
53 76
53 121
53 131
53 148
53 149
54 113
54 122
54 128
54 152
54 153
55 71
55 105
55 106
55 107
55 108
56 79
56 80
56 81
56 82
56 83
57 99
57 107
57 140
57 155
57 156
58 67
58 115
58 116
58 117
58 118
59 102
59 126
59 143
59 145
59 147
60 82
60 120
60 142
60 145
60 146
61 93
61 101
61 102
61 103
61 104
62 120
62 121
62 122
62 123
62 124
63 85
63 90
63 127
63 150
63 151
64 125
64 126
64 127
64 128
64 129
65 66
65 67
65 68
65 69
65 75
65 76
65 77
65 78
66 67
66 68
66 69
66 84
66 85
66 86
66 87
67 68
67 69
67 115
67 116
67 117
67 118
68 69
68 125
68 130
68 133
68 134
69 161
69 162
69 163
69 164
69 165
70 71
70 72
70 73
70 74
70 93
70 94
70 95
70 96
71 72
71 73
71 74
71 105
71 106
71 107
71 108
72 73
72 74
72 103
72 150
72 155
72 157
73 74
73 91
73 123
73 158
73 159
74 166
74 167
74 168
74 169
74 170
75 76
75 77
75 78
75 95
75 139
75 140
75 141
76 77
76 78
76 121
76 131
76 148
76 149
77 78
77 117
77 148
77 158
77 160
78 161
78 171
78 172
78 173
78 174
79 80
79 81
79 82
79 83
79 97
79 98
79 99
79 100
80 81
80 82
80 83
80 116
80 130
80 131
80 132
81 82
81 83
81 101
81 105
81 135
81 138
82 83
82 120
82 142
82 145
82 146
83 175
83 176
83 177
83 178
83 179
84 85
84 86
84 87
84 109
84 112
84 113
84 114
85 86
85 87
85 90
85 127
85 150
85 151
86 87
86 106
86 136
86 152
86 154
87 162
87 180
87 181
87 182
87 183
88 89
88 90
88 91
88 92
88 97
88 109
88 110
88 111
89 90
89 91
89 92
89 94
89 110
89 115
89 119
90 91
90 92
90 127
90 150
90 151
91 92
91 123
91 158
91 159
92 184
92 185
92 186
92 187
92 188
93 94
93 95
93 96
93 101
93 102
93 103
93 104
94 95
94 96
94 110
94 115
94 119
95 96
95 139
95 140
95 141
96 166
96 189
96 190
96 191
96 192
97 98
97 99
97 100
97 109
97 110
97 111
98 99
98 100
98 112
98 135
98 136
98 137
99 100
99 107
99 140
99 155
99 156
100 175
100 193
100 194
100 195
100 196
101 102
101 103
101 104
101 105
101 135
101 138
102 103
102 104
102 126
102 143
102 145
102 147
103 104
103 150
103 155
103 157
104 189
104 197
104 198
104 199
104 200
105 106
105 107
105 108
105 135
105 138
106 107
106 108
106 136
106 152
106 154
107 108
107 140
107 155
107 156
108 167
108 201
108 202
108 203
108 204
109 110
109 111
109 112
109 113
109 114
110 111
110 115
110 119
111 184
111 193
111 205
111 206
111 207
112 113
112 114
112 135
112 136
112 137
113 114
113 122
113 128
113 152
113 153
114 180
114 205
114 208
114 209
114 210
115 116
115 117
115 118
115 119
116 117
116 118
116 130
116 131
116 132
117 118
117 148
117 158
117 160
118 163
118 211
118 212
118 213
118 214
119 185
119 190
119 206
119 211
119 215
120 121
120 122
120 123
120 124
120 142
120 145
120 146
121 122
121 123
121 124
121 131
121 148
121 149
122 123
122 124
122 128
122 152
122 153
123 124
123 158
123 159
124 216
124 217
124 218
124 219
124 220
125 126
125 127
125 128
125 129
125 130
125 133
125 134
126 127
126 128
126 129
126 143
126 145
126 147
127 128
127 129
127 150
127 151
128 129
128 152
128 153
129 221
129 222
129 223
129 224
129 225
130 131
130 132
130 133
130 134
131 132
131 148
131 149
132 176
132 212
132 226
132 227
132 228
133 134
133 139
133 142
133 143
133 144
134 164
134 221
134 226
134 229
134 230
135 136
135 137
135 138
136 137
136 152
136 154
137 194
137 208
137 231
137 232
137 233
138 177
138 197
138 201
138 231
138 234
139 140
139 141
139 142
139 143
139 144
140 141
140 155
140 156
141 171
141 191
141 235
141 236
141 237
142 143
142 144
142 145
142 146
143 144
143 145
143 147
144 229
144 235
144 238
144 239
144 240
145 146
145 147
146 178
146 216
146 238
146 241
146 242
147 198
147 222
147 239
147 241
147 243
148 149
148 158
148 160
149 172
149 217
149 227
149 244
149 245
150 151
150 155
150 157
151 181
151 186
151 223
151 246
151 247
152 153
152 154
153 209
153 218
153 224
153 248
153 249
154 182
154 202
154 232
154 248
154 250
155 156
155 157
156 195
156 203
156 236
156 251
156 252
157 168
157 199
157 246
157 251
157 253
158 159
158 160
159 169
159 187
159 219
159 254
159 255
160 173
160 213
160 244
160 254
160 256
161 162
161 163
161 164
161 165
161 171
161 172
161 173
161 174
162 163
162 164
162 165
162 180
162 181
162 182
162 183
163 164
163 165
163 211
163 212
163 213
163 214
164 165
164 221
164 226
164 229
164 230
165 270
166 167
166 168
166 169
166 170
166 189
166 190
166 191
166 192
167 168
167 169
167 170
167 201
167 202
167 203
167 204
168 169
168 170
168 199
168 246
168 251
168 253
169 170
169 187
169 219
169 254
169 255
170 286
171 172
171 173
171 174
171 191
171 235
171 236
171 237
172 173
172 174
172 217
172 227
172 244
172 245
173 174
173 213
173 244
173 254
173 256
174 288
175 176
175 177
175 178
175 179
175 193
175 194
175 195
175 196
176 177
176 178
176 179
176 212
176 226
176 227
176 228
177 178
177 179
177 197
177 201
177 231
177 234
178 179
178 216
178 238
178 241
178 242
179 265
180 181
180 182
180 183
180 205
180 208
180 209
180 210
181 182
181 183
181 186
181 223
181 246
181 247
182 183
182 202
182 232
182 248
182 250
183 269
184 185
184 186
184 187
184 188
184 193
184 205
184 206
184 207
185 186
185 187
185 188
185 190
185 206
185 211
185 215
186 187
186 188
186 223
186 246
186 247
187 188
187 219
187 254
187 255
188 287
189 190
189 191
189 192
189 197
189 198
189 199
189 200
190 191
190 192
190 206
190 211
190 215
191 192
191 235
191 236
191 237
192 278
193 194
193 195
193 196
193 205
193 206
193 207
194 195
194 196
194 208
194 231
194 232
194 233
195 196
195 203
195 236
195 251
195 252
196 277
197 198
197 199
197 200
197 201
197 231
197 234
198 199
198 200
198 222
198 239
198 241
198 243
199 200
199 246
199 251
199 253
200 260
201 202
201 203
201 204
201 231
201 234
202 203
202 204
202 232
202 248
202 250
203 204
203 236
203 251
203 252
204 266
205 206
205 207
205 208
205 209
205 210
206 207
206 211
206 215
207 279
208 209
208 210
208 231
208 232
208 233
209 210
209 218
209 224
209 248
209 249
210 280
211 212
211 213
211 214
211 215
212 213
212 214
212 226
212 227
212 228
213 214
213 244
213 254
213 256
214 263
215 274
216 217
216 218
216 219
216 220
216 238
216 241
216 242
217 218
217 219
217 220
217 227
217 244
217 245
218 219
218 220
218 224
218 248
218 249
219 220
219 254
219 255
220 259
221 222
221 223
221 224
221 225
221 226
221 229
221 230
222 223
222 224
222 225
222 239
222 241
222 243
223 224
223 225
223 246
223 247
224 225
224 248
224 249
225 257
226 227
226 228
226 229
226 230
227 228
227 244
227 245
228 275
229 230
229 235
229 238
229 239
229 240
230 283
231 232
231 233
231 234
232 233
232 248
232 250
233 272
234 285
235 236
235 237
235 238
235 239
235 240
236 237
236 251
236 252
237 276
238 239
238 240
238 241
238 242
239 240
239 241
239 243
240 284
241 242
241 243
242 261
243 262
244 245
244 254
244 256
245 268
246 247
246 251
246 253
247 258
248 249
248 250
249 267
250 282
251 252
251 253
252 264
253 273
254 255
254 256
255 271
256 281
